100 100 100
600 400 400
600 400 400
600 400 400
600 400 400
600 400 400
150 150 150
150 150 150
265 160 190
265 160 190
265 160 190
265 160 190
260 170 80
260 170 80
260 170 80
260 170 80
400 270 180
400 270 180
400 270 180
400 270 180
530 360 220
265 160 190
265 160 190
265 160 190
265 160 190
265 160 190
265 160 190
265 160 190
265 160 190
400 270 180
400 270 180
400 270 180
600 400 400
265 160 190
265 160 190
265 160 190
265 160 190
265 160 190
265 160 190
400 270 180
400 270 180
400 270 180
150 150 150
150 150 150
150 150 150
265 160 190
265 160 190
265 160 190
265 160 190
265 160 190
265 160 190
265 160 190
265 160 190
265 160 190
400 270 180
400 270 180
400 270 180
400 270 180
400 270 180
400 270 180
400 270 180
400 270 180
400 270 180
260 170 80
260 170 80
260 170 80
260 170 80
260 170 80
260 170 80
150 150 150